StudentsNr = 10;
InstructorsNr = 24;
DaysNr = 1;
SlotsPerDay = 20;
AvailabilitySlotsLenght = 5;
RoomNr = 2;
ProgrammNr = 2;
DegreeNr = 2;
RolesNr = 3;
CoursesNr = 10;
InstructorsProgramm = [{2}, {1}, {1}, {2}, {1, 2}, {1, 2}, {2}, {1}, {1, 2}, {2}, {1}, {1, 2}, {2}, {2}, {1, 2}, {1}, {1}, {1}, {2}, {2}, {1, 2}, {1, 2}, {2}, {1}];
InstructorRolesPerProgramm = [|{5, 8, 12, 15, 16, 17, 21}, {2, 3, 5, 12, 22}, {2, 3, 12, 15, 17, 21, 22}|{1, 4, 5, 12, 13, 15, 20, 21}, {4, 5, 7, 12, 14, 22}, {1, 12, 13, 14, 15, 19, 20, 21, 22, 23}|];
InstructorsAvailability = [|1, 1, 1, 1, |0, 0, 0, 0, |0, 0, 0, 1, |0, 1, 0, 1, |0, 0, 1, 0, |0, 0, 1, 1, |1, 0, 1, 0, |1, 1, 0, 0, |1, 1, 1, 1, |1, 1, 1, 1, |0, 0, 1, 1, |1, 1, 1, 1, |1, 1, 0, 1, |1, 1, 1, 1, |0, 0, 1, 1, |0, 1, 1, 1, |0, 0, 1, 1, |1, 1, 1, 1, |1, 1, 0, 1, |0, 1, 1, 1, |1, 1, 1, 1, |0, 0, 1, 0, |1, 1, 1, 1, |1, 1, 1, 1|];
StudentsProgramm = [2, 1, 2, 1, 1, 2, 2, 2, 2, 2];
StudentsDegree = [1, 2, 1, 1, 1, 1, 1, 2, 2, 1];
StudentsSupervisorId = [20, 3, 19, 6, 6, 22, 12, 15, 5, 15];
StudentsCourseIds = [{4, 7, 9}, {1, 2, 5, 7, 8, 9, 10}, {3, 4, 10}, {1, 5, 7}, {3, 8, 9}, {7, 8, 10}, {2, 4, 9}, {4, 5, 6, 7, 8, 9, 10}, {2, 3, 5, 6, 8, 9, 10}, {3, 9, 10}];
StudentsAvailability = [|0, 0, 1, 1, |1, 1, 1, 1, |0, 0, 1, 1, |0, 0, 1, 1, |0, 0, 1, 1, |1, 1, 1, 1, |1, 1, 1, 1, |0, 1, 1, 1, |1, 1, 1, 1, |0, 0, 1, 1|];
TheoryticalMinCard = [0, 0, 0, 0, 0, 0, 0, 0, 0, 0];
CoursesInstructorIds = [{2, 3, 5, 6, 7, 9, 13, 14, 15, 16, 17, 18, 19, 23, 24}, {5, 9, 10, 15, 20}, {1, 2, 3, 6, 7, 8, 12, 13, 14, 15, 16, 17, 19, 21, 24}, {1, 2, 4, 5, 7, 9, 10, 11, 13, 14, 17, 18, 19, 21, 22, 23, 24}, {3, 9, 11, 16, 21, 23, 24}, {3, 5, 6, 8, 9, 10, 16, 17, 18, 22, 24}, {2, 7, 8, 12, 13, 14, 15, 16, 17, 19, 20, 21, 22, 23}, {1, 2, 3, 4, 5, 9, 16, 18, 19, 21, 22, 24}, {5, 8, 12, 17, 18, 20, 24}, {1, 2, 6, 12, 14, 15, 16, 19, 20, 21, 24}];
RolesDemands = [4, 3, 6];
RolesContinuity = [2];
ExamLen = [1, 2, 1, 1, 1, 1, 1, 2, 2, 1];
LunchTsMinLen = 0;
LunchStarts = [6..12];
SupervisorAvailable = 0;
OptimalLunchLenght = [3, 0];
OptimalStartTs = [2, 0];
OptimalFinishTs = [2, 20];
MinimizeRooms = 100;
RolesSoftContinuity = [|1, 2, 3|2, 2, 3|];
SameDegreeInRoom = 20;
Mergeability = 0;
